NAME : kroB200
TYPE : OP
DIMENSION : 200
COST_LIMIT : 14719
ROUTE_NODES : 119
ROUTE_SCORE : 119
ROUTE_COST : 14667
NODE_SEQUENCE_SECTION
1
95
98
32
167
175
59
136
29
8
99
97
91
129
28
158
11
93
122
85
73
53
170
149
70
198
39
40
117
190
111
68
49
86
138
166
108
152
38
20
80
181
134
30
75
150
101
26
100
56
113
179
79
188
127
124
65
141
184
37
115
54
163
154
191
177
164
50
159
106
140
183
103
77
105
18
96
137
19
151
92
119
36
45
17
192
78
155
13
2
109
42
120
125
14
118
185
43
196
186
60
165
74
114
168
133
66
145
199
131
178
94
180
176
27
71
161
12
174
-1
DEPOT_SECTION
1
-1
EOF
